22, 428
59, 992
494, 955
372, 895
172, 584
368, 732
108, 771
81, 629
131, 520
362, 737
183, 779
108, 883
73, 782
180, 626
143, 985
487, 815
243, 743
355, 547
69, 826
155, 696
432, 943
442, 925
365, 977